unsat
(:SPACER-cluster-out-of-gas           44
 :SPACER-conj                         24
 :SPACER-expand-pob-undef             84
 :SPACER-inductive-gen                106
 :SPACER-inductive-gen-weaken-fail    143
 :SPACER-inductive-gen-weaken-success 6
 :SPACER-inductive-level              24
 :SPACER-max-depth                    26
 :SPACER-max-query-lvl                26
 :SPACER-non-local-gen                174
 :SPACER-num-active-lemmas            31
 :SPACER-num-ctp-blocked              38
 :SPACER-num-invariants               31
 :SPACER-num-is_invariant             599
 :SPACER-num-lemma-jumped             13
 :SPACER-num-lemmas                   170
 :SPACER-num-pobs                     145
 :SPACER-num-propagations             398
 :SPACER-num-queries                  228
 :SPACER-num-reach-queries            68
 :SPACER-num-reuse-reach-facts        47
 :added-eqs                           12236
 :arith-assert-diseq                  9004
 :arith-assert-lower                  50160
 :arith-assert-upper                  60946
 :arith-bound-prop                    1408
 :arith-branch-var                    28
 :arith-conflicts                     298
 :arith-eq-adapter                    1514
 :arith-fixed-eqs                     1360
 :arith-gcd-tests                     564
 :arith-ineq-splits                   28
 :arith-num-rows                      18
 :arith-offset-eqs                    206
 :arith-patches                       180
 :arith-patches_succ                  138
 :arith-pivots                        2878
 :arith-row-summations                8554
 :arith-tableau-max-columns           180
 :arith-tableau-max-rows              18
 :conflicts                           3348
 :decisions                           40980
 :del-clause                          3706
 :final-checks                        1310
 :iuc_solver.num_proxies              129
 :max-memory                          36.83
 :memory                              35.99
 :minimized-lits                      630
 :mk-bool-var                         10058
 :mk-clause                           8778
 :num-allocs                          1547231975
 :num-checks                          3690
 :pool_solver.checks                  1845
 :pool_solver.checks.sat              382
 :pool_solver.checks.undef            252
 :propagations                        749880
 :rlimit-count                        1184744
 :time                                1.20
 :time.iuc_solver.get_iuc             0.22
 :time.iuc_solver.get_iuc.hyp_reduce1 0.06
 :time.iuc_solver.get_iuc.hyp_reduce2 0.10
 :time.iuc_solver.get_iuc.learn_core  0.04
 :time.pool_solver.proof              0.05
 :time.pool_solver.smt.total          0.50
 :time.pool_solver.smt.total.sat      0.14
 :time.pool_solver.smt.total.undef    0.07
 :time.spacer.ctp                     0.01
 :time.spacer.init_rules              0.00
 :time.spacer.mbp                     0.04
 :time.spacer.solve                   1.18
 :time.spacer.solve.propagate         0.20
 :time.spacer.solve.reach             0.97
 :time.spacer.solve.reach.children    0.09
 :time.spacer.solve.reach.cluster     0.04
 :time.spacer.solve.reach.gen.global  0.07
 :time.spacer.solve.reach.gen.ind     0.06
 :time.spacer.solve.reach.is-reach    0.09)
(:max-memory   36.83
 :memory       35.99
 :num-allocs   1547231975
 :rlimit-count 1184744
 :time         1.20
 :total-time   1.21)
